Reading model...
...model read.
creating competitive generators file...
...competitive generators recorded.
Loading data...
.. real-time data read.
Compiling instance...
...instance created.
Creating Offer Mitigation (model will solve as dispatch if TRUE)...
NOTE: storage offers will not be mitigated
...storage offer mitigation file created
Converting model to MPEC...
...converted
NOTE: initial MIP solve with only storage competitive to get feasible solution
Solving...

Welcome to IBM(R) ILOG(R) CPLEX(R) Interactive Optimizer 12.10.0.0
  with Simplex, Mixed Integer & Barrier Optimizers
5725-A06 5725-A29 5724-Y48 5724-Y49 5724-Y54 5724-Y55 5655-Y21
Copyright IBM Corp. 1988, 2019.  All Rights Reserved.

Type 'help' for a list of available commands.
Type 'help' followed by a command name for more
information on commands.

CPLEX> Logfile 'cplex.log' closed.
Logfile 'C:\Users\wenmi\Desktop\competitiveMPEC\logs\tmpyv54y4_u.cplex.log' open.
CPLEX> New value for parallel optimization mode: -1
CPLEX> New value for mixed integer optimality gap tolerance: 0.05
CPLEX> New value for deterministic time limit in ticks: 100000
CPLEX> Problem 'C:\Users\wenmi\Desktop\competitiveMPEC\logs\tmplcn5s56z.pyomo.lp' read.
Read time = 0.31 sec. (27.44 ticks)
CPLEX> Problem name         : C:\Users\wenmi\Desktop\competitiveMPEC\logs\tmplcn5s56z.pyomo.lp
Objective sense      : Maximize
Variables            :  107779  [Nneg: 1,  Box: 44054,  Free: 8928,
                                 Binary: 54796]
Objective nonzeros   :   19154
Linear constraints   :  246995  [Less: 82866,  Greater: 118424,  Equal: 45705]
  Nonzeros           :  582461
  RHS nonzeros       :  136223

Variables            : Min LB: -5000.000        Max UB: 1000000.       
Objective nonzeros   : Min   : 0.01666667       Max   : 2500.000       
Linear constraints   :
  Nonzeros           : Min   : 0.01666667       Max   : 1000000.       
  RHS nonzeros       : Min   : 0.01666667       Max   : 1000000.       
CPLEX> Version identifier: 12.10.0.0 | 2019-11-26 | 843d4de2ae
CPXPARAM_Parallel                                -1
CPXPARAM_DetTimeLimit                            100000
CPXPARAM_MIP_Tolerances_MIPGap                   0.050000000000000003
Tried aggregator 3 times.
MIP Presolve eliminated 173103 rows and 34071 columns.
MIP Presolve added 7724 rows and 0 columns.
MIP Presolve modified 52094 coefficients.
Aggregator did 26035 substitutions.
Reduced MIP has 55581 rows, 47289 columns, and 151820 nonzeros.
Reduced MIP has 18748 binaries, 0 generals, 0 SOSs, and 0 indicators.
Presolve time = 0.34 sec. (341.48 ticks)
Probing fixed 755 vars, tightened 8694 bounds.
Probing time = 0.09 sec. (17.90 ticks)
Tried aggregator 2 times.
Detecting symmetries...
MIP Presolve eliminated 1704 rows and 1521 columns.
MIP Presolve modified 7162 coefficients.
Aggregator did 96 substitutions.
Reduced MIP has 53781 rows, 45672 columns, and 146548 nonzeros.
Reduced MIP has 17993 binaries, 0 generals, 0 SOSs, and 0 indicators.
Presolve time = 0.16 sec. (270.25 ticks)
Probing fixed 1 vars, tightened 115 bounds.
Probing time = 0.22 sec. (23.44 ticks)
Clique table members: 93202.
MIP emphasis: balance optimality and feasibility.
MIP search method: dynamic search.
Parallel mode: opportunistic, using up to 16 threads.
Root relaxation solution time = 0.80 sec. (2277.77 ticks)

        Nodes                                         Cuts/
   Node  Left     Objective  IInf  Best Integer    Best Bound    ItCnt     Gap

      0     0       46.9976    17                     46.9976    11558         
*     0+    0                           46.9976       46.9976             0.00%
      0     0        cutoff             46.9976       46.9976    11558    0.00%
Elapsed time = 2.05 sec. (3439.43 ticks, tree = 0.01 MB, solutions = 1)

Root node processing (before b&c):
  Real time             =    2.06 sec. (3443.43 ticks)
Parallel b&c, 16 threads:
  Real time             =    0.00 sec. (0.00 ticks)
  Sync time (average)   =    0.00 sec.
  Wait time (average)   =    0.00 sec.
                          ------------
Total (root+branch&cut) =    2.06 sec. (3443.43 ticks)

Solution pool: 1 solution saved.

MIP - Integer optimal solution:  Objective =  4.6997630705e+01
Solution time =    2.06 sec.  Iterations = 11558  Nodes = 0
Deterministic time = 3443.74 ticks  (1669.29 ticks/sec)

CPLEX> Incumbent solution written to file 'C:\Users\wenmi\Desktop\competitiveMPEC\logs\tmp2ua00gsk.cplex.sol'.
CPLEX> NOTE: no warmstart specified for MIP iteration, default behavior is true
NOTE: resolving with all competitive generators using storage-only solution to warmstart
Solving...

Welcome to IBM(R) ILOG(R) CPLEX(R) Interactive Optimizer 12.10.0.0
  with Simplex, Mixed Integer & Barrier Optimizers
5725-A06 5725-A29 5724-Y48 5724-Y49 5724-Y54 5724-Y55 5655-Y21
Copyright IBM Corp. 1988, 2019.  All Rights Reserved.

Type 'help' for a list of available commands.
Type 'help' followed by a command name for more
information on commands.

CPLEX> Logfile 'cplex.log' closed.
Logfile 'C:\Users\wenmi\Desktop\competitiveMPEC\logs\tmp0qhxi8xn.cplex.log' open.
CPLEX> New value for parallel optimization mode: -1
CPLEX> New value for mixed integer optimality gap tolerance: 0.05
CPLEX> New value for deterministic time limit in ticks: 100000
CPLEX> Problem 'C:\Users\wenmi\Desktop\competitiveMPEC\logs\tmpoulwx9ce.pyomo.lp' read.
Read time = 0.33 sec. (27.48 ticks)
CPLEX> MIP start file 'C:\Users\wenmi\Desktop\competitiveMPEC\logs\tmp112kri4y.cplex.mst' read.
CPLEX> Problem name         : C:\Users\wenmi\Desktop\competitiveMPEC\logs\tmpoulwx9ce.pyomo.lp
Objective sense      : Maximize
Variables            :  109219  [Nneg: 1,  Box: 45494,  Free: 8928,
                                 Binary: 54796]
Objective nonzeros   :   20546
Linear constraints   :  246995  [Less: 82866,  Greater: 118424,  Equal: 45705]
  Nonzeros           :  582461
  RHS nonzeros       :  136223

Variables            : Min LB: -5000.000        Max UB: 1000000.       
Objective nonzeros   : Min   : 0.01666667       Max   : 2500.000       
Linear constraints   :
  Nonzeros           : Min   : 0.01666667       Max   : 1000000.       
  RHS nonzeros       : Min   : 0.01666667       Max   : 1000000.       
CPLEX> Version identifier: 12.10.0.0 | 2019-11-26 | 843d4de2ae
CPXPARAM_Parallel                                -1
CPXPARAM_DetTimeLimit                            100000
CPXPARAM_MIP_Tolerances_MIPGap                   0.050000000000000003
1 of 1 MIP starts provided solutions.
MIP start 'm1' defined initial solution with objective 46.9976.
Tried aggregator 3 times.
MIP Presolve eliminated 173103 rows and 35511 columns.
MIP Presolve added 7724 rows and 0 columns.
MIP Presolve modified 52094 coefficients.
Aggregator did 26035 substitutions.
Reduced MIP has 55581 rows, 47289 columns, and 151820 nonzeros.
Reduced MIP has 18748 binaries, 0 generals, 0 SOSs, and 0 indicators.
Presolve time = 0.34 sec. (342.24 ticks)
Probing fixed 755 vars, tightened 8694 bounds.
Probing time = 0.09 sec. (17.90 ticks)
Tried aggregator 2 times.
Detecting symmetries...
MIP Presolve eliminated 1704 rows and 1521 columns.
MIP Presolve modified 7162 coefficients.
Aggregator did 96 substitutions.
Reduced MIP has 53781 rows, 45672 columns, and 146548 nonzeros.
Reduced MIP has 17993 binaries, 0 generals, 0 SOSs, and 0 indicators.
Presolve time = 0.17 sec. (270.26 ticks)
Probing fixed 1 vars, tightened 117 bounds.
Probing time = 0.17 sec. (21.33 ticks)
Clique table members: 92977.
MIP emphasis: balance optimality and feasibility.
MIP search method: dynamic search.
Parallel mode: opportunistic, using up to 16 threads.
Root relaxation solution time = 0.81 sec. (2545.76 ticks)

        Nodes                                         Cuts/
   Node  Left     Objective  IInf  Best Integer    Best Bound    ItCnt     Gap

*     0+    0                           46.9976   1.40536e+07              --- 
      0     0     3471.6900   165       46.9976     3471.6900    12796     --- 
*     0+    0                           46.9976     3471.6900              --- 
      0     0     3313.4999   165       46.9976     Cuts: 467    13013     --- 
      0     0     3254.9562   165       46.9976     Cuts: 195    13117     --- 
      0     0     3248.5381   165       46.9976     Cuts: 107    13131     --- 
      0     0     3247.5662   165       46.9976       Cuts: 7    13139     --- 
      0     0     3241.1067   165       46.9976       Cuts: 6    13140     --- 
      0    10     2562.4912    25       46.9976     3221.3752    13191     --- 
Elapsed time = 5.88 sec. (7213.12 ticks, tree = 0.02 MB, solutions = 2)
    153    45     2171.6239    27       46.9976     3174.5084    13385     --- 
    293    69     2862.0948    33       46.9976     3174.5084    13514     --- 
    493   116     2611.5684    23       46.9976     3174.5084    13681     --- 
    633   310     1366.2862     8       46.9976     3174.5084    14511     --- 
    835   458        cutoff             46.9976     3174.5084    15178     --- 
   1006   534     3002.0873    41       46.9976     3174.5084    15547     --- 
   1207   825      262.5834    27       46.9976     3174.5084    17411     --- 
   1434   700     2089.7545    26       46.9976     3174.5084    16556     --- 
   1621  1088        cutoff             46.9976     3174.5084    19253     --- 
   2175  1378     2829.2303    26       46.9976     3162.6364    21690     --- 
Elapsed time = 20.78 sec. (10326.11 ticks, tree = 19.57 MB, solutions = 2)
   2934  1863     2637.8260    23       46.9976     3162.6364    24532     --- 
   3847  2401     2637.8260    23      540.7241     3162.6364    26770  484.89%
   4594  2884     1887.6927    22      540.7241     3162.6364    28067  484.89%

Performing restart 1

Repeating presolve.
Tried aggregator 3 times.
MIP Presolve eliminated 1435 rows and 1300 columns.
MIP Presolve modified 58665 coefficients.
Aggregator did 348 substitutions.
Reduced MIP has 51998 rows, 44024 columns, and 140619 nonzeros.
Reduced MIP has 17439 binaries, 0 generals, 0 SOSs, and 0 indicators.
Presolve time = 0.19 sec. (180.27 ticks)
Tried aggregator 3 times.
MIP Presolve eliminated 772 rows and 614 columns.
MIP Presolve modified 28353 coefficients.
Aggregator did 10 substitutions.
Reduced MIP has 51216 rows, 43400 columns, and 138507 nonzeros.
Reduced MIP has 17132 binaries, 0 generals, 0 SOSs, and 0 indicators.
Presolve time = 0.11 sec. (114.79 ticks)
Tried aggregator 1 time.
MIP Presolve eliminated 2 rows and 2 columns.
MIP Presolve modified 18700 coefficients.
Reduced MIP has 51214 rows, 43398 columns, and 138501 nonzeros.
Reduced MIP has 17131 binaries, 0 generals, 0 SOSs, and 0 indicators.
Presolve time = 0.14 sec. (130.72 ticks)
Represolve time = 1.61 sec. (811.93 ticks)
   5057     0     3241.1067   276      540.7241     Cuts: 565    45734  484.89%
   5057     0     3238.0027   276      540.7241     Cuts: 129    45846  484.89%
   5057     0     3235.8735   276      540.7241      Cuts: 76    45925  484.89%
   5057     0     3234.5121   276      540.7241     Cuts: 129    46069  484.89%
   5057     0     3234.3381   276      540.7241     Cuts: 102    46153  484.89%
   5057     0     3234.3381   276      540.7241      Cuts: 93    46215  484.89%
   5057     0     3234.3381   276      540.7241     Cuts: 125    46286  484.89%
   5057     0     3234.3381   276      540.7241      Cuts: 77    46346  484.89%
   5057     2     2792.9102    59      540.7241     3162.6364    46356  484.89%
*  5059+    8                          551.0584     3162.6364           473.92%
*  5059+    3                          551.0584     3162.6364           473.92%
*  5071+   10                          552.7763     3150.0689           469.86%
   5188    44     2109.1086    40      552.7763     3150.0689    47313  469.86%
   5418    42     2551.5371    51      552.7763     3150.0689    47161  469.86%
   5690   375     2708.6410    46     1052.4877     3150.0689    49268  199.30%
   6000   378     2108.9579    42     1052.4877     3150.0689    48849  199.30%
   6425   633     2606.8490    47     1052.4877     3150.0689    50036  199.30%
   6970   676     2055.8604    35     1052.4877     3150.0689    50404  199.30%
Elapsed time = 74.20 sec. (31312.23 ticks, tree = 36.82 MB, solutions = 10)
   7424   791     2708.1617    39     1052.4877     3150.0689    50721  199.30%
   7912  1822     2055.5258    39     1052.4877     3150.0689    52796  199.30%
   8378  2535     2303.7632    36     1052.4877     3150.0689    53936  199.30%
   8849  3121     2165.3640    46     1052.4877     3150.0689    55157  199.30%
   9238  3032     2605.8682    59     1052.4877     3150.0689    55019  199.30%
   9774  3968     2700.4147    51     1052.4877     3150.0689    57089  199.30%
  10333  4035     2680.7687    50     1052.4877     3150.0689    57237  199.30%
  10942  3647     1774.0546    39     1052.4877     3150.0689    56396  199.30%
  11493  3971     2692.8652    49     1052.4877     3150.0689    57103  199.30%
  12161  5814     2665.0652    40     1052.4877     3150.0689    62728  199.30%
Elapsed time = 119.64 sec. (40864.58 ticks, tree = 146.48 MB, solutions = 10)
  12850  6485     2593.1941    46     1052.4877     3150.0689    64646  199.30%
  13786  6468     2708.6410    44     1052.4877     3150.0689    64705  199.30%
  14791  6269     2593.1941    42     1052.4877     3150.0689    64084  199.30%
  15792  7147     2033.9814    33     1439.4256     3150.0689    66536  118.84%
  16812  8006     1484.8932    28     1439.4256     3150.0689    70928  118.84%
  17757  8324     2274.0416    34     1439.4256     3150.0689    70009  118.84%
  18662  8692     1442.4293     8     1439.4256     3150.0689    72489  118.84%
  19637  9828     1859.4268    26     1439.4256     3150.0689    76185  118.84%
  20492 11235     1533.4628    15     1439.4256     3150.0689    81376  118.84%
  21423 13831     1868.2396    19     1439.4256     3150.0689    90091  118.84%
Elapsed time = 164.39 sec. (50408.93 ticks, tree = 290.45 MB, solutions = 13)
  22319 12243     1870.0085    18     1439.4256     3150.0689    84916  118.84%
  23366 14238     2117.4133    26     1439.4256     3150.0689    91437  118.84%
  24438 13641     2119.5753    37     1439.4256     3150.0689    89561  118.84%
  25550 14510     1863.5275    24     1439.4256     3150.0689    92256  118.84%
  26651 14189     2448.8255    42     1439.4256     3150.0689    91397  118.84%
  27758 17615     2050.3736    30     1439.4256     3150.0689   102361  118.84%
  28877 19572     2636.2167    53     1439.4256     3150.0689   108553  118.84%
  29962 16658     2161.6302    33     1439.4256     3150.0689    99218  118.84%
  30948 21212     2937.4093    52     1439.4256     3150.0689   113831  118.84%
  32000 22893     1929.0673    37     1439.4256     3150.0689   118839  118.84%
Elapsed time = 210.75 sec. (59952.01 ticks, tree = 456.19 MB, solutions = 13)
  33055 25624     2637.7299    52     1439.4256     3149.9728   126983  118.84%
  34150 27107     1952.2811    43     1439.4256     3149.9728   131391  118.84%
  35354 21704     1454.7849    29     1439.4256     3149.9728   115630  118.84%
  36638 22537     2634.6811    42     1439.4256     3149.9728   117952  118.84%
  37858 24673     1983.5608    38     1439.4256     3149.9728   124366  118.84%
  38965 24944     1701.3470    62     1439.4256     3149.9728   124983  118.84%
  40101 32195     2349.5016    57     1439.4256     3146.8225   147691  118.62%
  41168 32247     1858.8177    33     1439.4256     3146.8225   147888  118.62%
  42261 29496        cutoff           1439.4256     3146.8225   138938  118.62%
  43252 32372     2510.8390    59     1439.4256     3146.8225   148386  118.62%
Elapsed time = 255.05 sec. (69495.95 ticks, tree = 632.23 MB, solutions = 13)
  44233 28620     1979.4111    38     1439.4256     3146.8225   136078  118.62%
  45245 30488        cutoff           1439.4256     3146.8225   141977  118.62%
  46362 32706     2727.3626    62     1439.4256     3146.8225   149063  118.62%
  47316 32961     2755.7990    52     1439.4256     3146.8225   149982  118.62%
  48267 35107     1470.6279    44     1439.4256     3146.8225   156759  118.62%
  49040 34908     2768.0043    53     1439.4256     3146.8225   155985  118.62%
  49755 34544     2737.3445    51     1439.4256     3146.8225   154750  118.62%
  50533 37707     1755.2188    33     1439.4256     3146.3686   164479  118.59%
  51325 42353     1507.0446    27     1439.4256     3146.3686   179766  118.59%
  52093 43434     2709.6182    43     1439.4256     3146.3686   183516  118.59%
Elapsed time = 315.44 sec. (79044.83 ticks, tree = 846.57 MB, solutions = 13)
  52848 41360     2755.1359    44     1439.4256     3146.3686   176185  118.59%
  53492 37576     2880.0676    50     1439.4256     3146.3686   164028  118.59%
  54090 40987     1446.5035    44     1439.4256     3146.3686   174983  118.59%
  54672 44599     1474.6170    33     1439.4256     3146.3686   187916  118.59%
  55191 44646     2666.4866    56     1439.4256     3146.3686   188093  118.59%
  55728 42651     2925.1857    48     1439.4256     3146.3686   180825  118.59%
  56194 47546     2564.8453    45     1439.4256     3146.3686   199485  118.59%
  56714 43998     2726.4424    49     1439.4256     3146.3686   185604  118.59%
  57246 47667     1506.3953    42     1439.4256     3146.3686   199835  118.59%
  57745 44219     1597.7624    52     1439.4256     3146.3686   186545  118.59%
Elapsed time = 358.36 sec. (88593.94 ticks, tree = 860.87 MB, solutions = 13)
  58194 46188     2568.1033    39     1439.4256     3146.3686   194251  118.59%
  58671 48882     2564.0350    44     1439.4256     3146.3686   204462  118.59%
  59170 46832     2593.5322    48     1439.4256     3146.3686   196694  118.59%
  59692 48273     1946.9318    40     1439.4256     3146.3686   202036  118.59%
  60197 47691     1639.3797    52     1439.4256     3146.3686   199786  118.59%
  60671 48390     2232.4728    41     1439.4256     3146.3686   202417  118.59%
  61091 48499     2155.7902    49     1439.4256     3146.3686   202800  118.59%
  61543 49450     2229.3368    39     1439.4256     3146.3686   206576  118.59%
  61823 51001     2252.5402    48     1439.4256     3146.3686   212558  118.59%
  62143 50141     1474.6170    32     1439.4256     3146.3686   209343  118.59%
Elapsed time = 364.94 sec. (98152.56 ticks, tree = 969.75 MB, solutions = 13)
  62451 50717     1851.5087    44     1439.4256     3146.3686   211293  118.59%

Cover cuts applied:  2
Flow cuts applied:  53
Mixed integer rounding cuts applied:  10
Lift and project cuts applied:  16
Gomory fractional cuts applied:  7

Root node processing (before b&c):
  Real time             =    4.80 sec. (7117.12 ticks)
Parallel b&c, 16 threads:
  Real time             =  360.39 sec. (92937.61 ticks)
  Sync time (average)   =    1.75 sec.
  Wait time (average)   =    0.07 sec.
                          ------------
Total (root+branch&cut) =  365.19 sec. (100054.73 ticks)

Solution pool: 13 solutions saved.

MIP - Deterministic time limit exceeded, integer feasible:  Objective =  1.4394255810e+03
Current MIP best bound =  3.1057750594e+03 (gap = 1666.35, 115.76%)
Solution time =  365.22 sec.  Iterations = 221147  Nodes = 62656 (53462)
Deterministic time = 100055.04 ticks  (273.96 ticks/sec)

CPLEX> Incumbent solution written to file 'C:\Users\wenmi\Desktop\competitiveMPEC\logs\tmp7yq1sxsu.cplex.sol'.
CPLEX> Exporting results... 
